Set parameter TokenServer to value "opt-license.discovery.wisc.edu"
Set parameter LazyConstraints to value 1
Set parameter TimeLimit to value 1800
Gurobi Optimizer version 9.5.1 build v9.5.1rc2 (linux64)
Thread count: 40 physical cores, 80 logical processors, using up to 32 threads
Optimize a model with 3025 rows, 2916 columns and 11610 nonzeros
Model fingerprint: 0x7c45d43e
Variable types: 0 continuous, 2916 integer (2916 binary)
Coefficient statistics:
  Matrix range     [1e+00, 1e+03]
  Objective range  [1e+00, 9e+00]
  Bounds range     [1e+00, 1e+00]
  RHS range        [1e+00, 8e+00]
Presolve removed 54 rows and 0 columns
Presolve time: 0.05s
Presolved: 2971 rows, 2916 columns, 11610 nonzeros
Variable types: 0 continuous, 2916 integer (2916 binary)

Root relaxation: objective 5.363958e+01, 637 iterations, 0.04 seconds (0.03 work units)

    Nodes    |    Current Node    |     Objective Bounds      |     Work
 Expl Unexpl |  Obj  Depth IntInf | Incumbent    BestBd   Gap | It/Node Time

     0     0   53.63958    0   98          -   53.63958      -     -    0s
     0     0   54.13176    0  166          -   54.13176      -     -    2s
     0     0   54.21316    0  154          -   54.21316      -     -    2s
     0     0   54.33396    0  154          -   54.33396      -     -    2s
     0     0   54.33616    0  160          -   54.33616      -     -    2s
     0     0   54.43245    0  170          -   54.43245      -     -    2s
     0     0   54.48288    0  169          -   54.48288      -     -    2s
     0     0   54.48667    0  168          -   54.48667      -     -    2s
     0     0   54.48738    0  163          -   54.48738      -     -    2s
     0     0   54.48738    0  151          -   54.48738      -     -    2s
     0     2   54.48738    0  151          -   54.48738      -     -    3s
*  502   543              13      56.3421936   55.01738  2.35%  67.4    4s
H  548   487                      56.1061257   55.02571  1.93%  65.5    4s
   795   556   55.18221    9   81   56.10613   55.02571  1.93%  56.8    5s
H  818   556                      56.0416306   55.02571  1.81%  56.6    5s

Cutting planes:
  Cover: 1
  MIR: 18
  StrongCG: 12
  GUB cover: 5
  Inf proof: 3
  Zero half: 3
  Lazy constraints: 200

Explored 3712 nodes (130122 simplex iterations) in 7.12 seconds (2.92 work units)
Thread count was 32 (of 80 available processors)

Solution count 3: 56.0416 56.1061 56.3422 

Optimal solution found (tolerance 1.00e-04)
Best objective 5.604163056034e+01, best bound 5.604163056034e+01, gap 0.0000%

User-callback calls 9786, time in user-callback 1.38 sec
cuts :  200
